AgF2                                    
   1.00000000000000     
     5.0539084071236076    0.0000000000000000    0.0000000000000000
     0.0000000000000000    5.4988767416925866    0.0000000000000000
     0.0000000000000000    0.0000000000000000    5.8265487387934476
   Ag   F 
     4     8
Direct
  0.0000000000000000  0.0000000000000000  0.0000000000000000
  0.5000000000000000  0.0000000000000000  0.5000000000000000
  0.0000000000000000  0.5000000000000000  0.5000000000000000
  0.5000000000000000  0.5000000000000000  0.0000000000000000
  0.1832577230021433  0.1940008812745603  0.3684109208362991
  0.8167422619978590  0.8059991037254419  0.6315890501637020
  0.3167422619978590  0.8059991037254419  0.8684109498362980
  0.6832577380021410  0.1940008812745603  0.1315890791637009
  0.8167422619978590  0.6940008962745581  0.1315890791637009
  0.1832577230021433  0.3059991037254420  0.8684109498362980
  0.6832577380021410  0.3059991037254420  0.6315890501637020
  0.3167422619978590  0.6940008962745581  0.3684109208362991
 
  0.00000000E+00  0.00000000E+00  0.00000000E+00
  0.00000000E+00  0.00000000E+00  0.00000000E+00
  0.00000000E+00  0.00000000E+00  0.00000000E+00
  0.00000000E+00  0.00000000E+00  0.00000000E+00
  0.00000000E+00  0.00000000E+00  0.00000000E+00
  0.00000000E+00  0.00000000E+00  0.00000000E+00
  0.00000000E+00  0.00000000E+00  0.00000000E+00
  0.00000000E+00  0.00000000E+00  0.00000000E+00
  0.00000000E+00  0.00000000E+00  0.00000000E+00
  0.00000000E+00  0.00000000E+00  0.00000000E+00
  0.00000000E+00  0.00000000E+00  0.00000000E+00
  0.00000000E+00  0.00000000E+00  0.00000000E+00
